FILENAME:   ../instances_new/flowersnark/flowersnark15_3.cip
SETTINGS:   settings_isopr_minimalindexbranching_avoidsubtreenodes
TIMELIMIT:  7200
OUTPUTNAME: final_flowersnark__settings_isopr_minimalindexbranching_avoidsubtreenodes__4__
BINNAME:    bin/symmetries.linux.x86_64.gnu.opt.cpx
BASENAME:   flowersnark15_3.cip
SEED:       4
@01 ../instances_new/flowersnark/flowersnark15_3.cip ===========
@02 flowersnark15_3.cip
@03 1686559524
SCIP version 8.0.2 [precision: 8 byte] [memory: block] [mode: optimized] [LP solver: CPLEX 20.1.0.0] [GitHash: 5f0473c]
Copyright (C) 2002-2022 Konrad-Zuse-Zentrum fuer Informationstechnik Berlin (ZIB)

Symmetry handling routines - (c) Marc Pfetsch, Thomas Rehn, Christopher Hojny.
[GitHash: a1587cb]


Turned off presolver <gateextraction>.
reading parameter file <../settings/settings_isopr_minimalindexbranching_avoidsubtreenodes.set> ...

Changed settings:
limits/time = 7200
limits/restarts = 0
randomization/randomseedshift = 4
constraints/orbitope/sepafreq = -1
constraints/orbitope/propfreq = 1
presolving/gateextraction/maxrounds = 0
propagating/isoprune/avoidsubtreenodes = TRUE
useisoprune = TRUE
usebranchfirst = TRUE


solving problem ...

original problem has 270 variables (270 bin, 0 int, 0 impl, 0 cont) and 270 constraints
presolving:
(round 1, exhaustive) 0 del vars, 0 del conss, 0 add conss, 0 chg bounds, 0 chg sides, 0 chg coeffs, 270 upgd conss, 0 impls, 270 clqs
   (0.0s) probing: 51/270 (18.9%) - 0 fixings, 0 aggregations, 0 implications, 0 bound changes
   (0.0s) probing aborted: 50/50 successive totally useless probings
Required symmetry:			(1 bin, 0 int, 0 cont); (fixed: 0 bin, 1 int, 0 cont)
Time for symmetry detection:		0.00 	(matrix graph, 540 nodes, 810 edges)
Number of generators:			5 	(max: 1500)
Order of symmetry group:		360
Log10 of symmetry group order:		2.6
Number of vars moved by some symmetry:	270
Total time for symmetry detection:	0.00

Turned off presolver <domcol>.
Turned off presolver <components>.

presolving (2 rounds: 2 fast, 2 medium, 2 exhaustive):
 0 deleted vars, 0 deleted constraints, 0 added constraints, 0 tightened bounds, 0 added holes, 0 changed sides, 0 changed coefficients
 0 implications, 270 cliques
presolved problem has 270 variables (270 bin, 0 int, 0 impl, 0 cont) and 271 constraints
    270 constraints of type <setppc>
      1 constraints of type <symmetries>
transformed objective value is always integral (scale: 1)
Presolving Time: 0.00

 time | node  | left  |LP iter|LP it/n|mem/heur|mdpt |frac |vars |cons |cols |rows |cuts |confs|strbr|  dualbound   | primalbound  |  gap   
  0.0s|     1 |     0 |    29 |     - |  4192k |   0 | 140 | 270 | 292 | 270 | 270 |   0 |  20 |   0 | 0.000000e+00 |      --      |    Inf 
  0.1s|     1 |     2 |   214 |     - |  4983k |   0 | 140 | 270 | 493 | 270 | 270 |   0 |  21 |   0 | 0.000000e+00 |      --      |    Inf 
  0.6s|   100 |    35 |  3661 |  35.1 |  6871k |  14 |  96 | 270 | 723 | 270 | 270 |   0 | 257 |   0 | 0.000000e+00 |      --      |    Inf 
  0.8s|   200 |    61 |  6618 |  32.3 |  8005k |  14 | 120 | 270 |1039 | 270 | 270 |   0 | 573 |   0 | 0.000000e+00 |      --      |    Inf 
  1.0s|   300 |    69 |  9201 |  30.2 |    10M |  15 | 120 | 270 |1302 | 270 | 270 |   0 | 836 |   0 | 0.000000e+00 |      --      |    Inf 
  1.1s|   400 |    78 | 12159 |  30.0 |    10M |  16 |   - | 270 |1658 |   0 |   0 |   0 |1192 |   0 | 0.000000e+00 |      --      |    Inf 
  1.2s|   500 |    89 | 14960 |  29.6 |    11M |  16 |   - | 270 |2008 |   0 |   0 |   0 |1542 |   0 | 0.000000e+00 |      --      |    Inf 
  1.4s|   600 |    96 | 17029 |  28.1 |    12M |  16 |   - | 270 |2325 |   0 |   0 |   0 |1859 |   0 | 0.000000e+00 |      --      |    Inf 
  1.5s|   700 |    91 | 19423 |  27.5 |    13M |  16 |   - | 270 |2561 | 270 | 270 |   0 |2095 |   0 | 0.000000e+00 |      --      |    Inf 
  1.6s|   800 |    93 | 22569 |  28.0 |    13M |  16 |   - | 270 |2951 | 270 | 270 |   0 |2485 |   0 | 0.000000e+00 |      --      |    Inf 
  1.8s|   900 |    97 | 25629 |  28.3 |    13M |  19 |  46 | 270 |3388 | 270 | 270 |   0 |2928 |   0 | 0.000000e+00 |      --      |    Inf 
  1.9s|  1000 |    97 | 28213 |  28.1 |    14M |  19 |  28 | 270 |3767 | 270 | 270 |   0 |3329 |   0 | 0.000000e+00 |      --      |    Inf 
  2.0s|  1100 |    91 | 30791 |  27.8 |    16M |  19 |  28 | 270 |4091 | 270 | 270 |   0 |3702 |   0 | 0.000000e+00 |      --      |    Inf 
  2.2s|  1200 |   100 | 33317 |  27.6 |    17M |  19 |  28 | 270 |4485 | 270 | 270 |   0 |4246 |   0 | 0.000000e+00 |      --      |    Inf 
  2.3s|  1300 |   101 | 35885 |  27.5 |    17M |  19 |  59 | 270 |4569 | 270 | 270 |   0 |4529 |   0 | 0.000000e+00 |      --      |    Inf 
 time | node  | left  |LP iter|LP it/n|mem/heur|mdpt |frac |vars |cons |cols |rows |cuts |confs|strbr|  dualbound   | primalbound  |  gap   
  2.5s|  1400 |   120 | 38634 |  27.5 |    18M |  19 |   - | 270 |4865 | 270 | 270 |   0 |4923 |   0 | 0.000000e+00 |      --      |    Inf 
  2.7s|  1500 |   136 | 41037 |  27.3 |    18M |  19 | 128 | 270 |5070 | 270 | 270 |   0 |5225 |   0 | 0.000000e+00 |      --      |    Inf 
  2.8s|  1600 |    97 | 42512 |  26.5 |    19M |  19 |  64 | 270 |5172 | 270 | 270 |   0 |5566 |   0 | 0.000000e+00 |      --      |    Inf 
  3.0s|  1700 |    97 | 45609 |  26.7 |    19M |  19 | 120 | 270 |5339 | 270 | 270 |   0 |5905 |   0 | 0.000000e+00 |      --      |    Inf 
  3.1s|  1800 |   106 | 48315 |  26.8 |    19M |  19 |  28 | 270 |5532 | 270 | 270 |   0 |6207 |   0 | 0.000000e+00 |      --      |    Inf 
  3.3s|  1900 |    93 | 50362 |  26.4 |    19M |  19 |  88 | 270 |5660 | 270 | 270 |   0 |6520 |   0 | 0.000000e+00 |      --      |    Inf 
  3.4s|  2000 |    40 | 51329 |  25.6 |    19M |  19 |   - | 270 |5624 |   0 |   0 |   0 |6729 |   0 | 0.000000e+00 |      --      |    Inf 
  3.9s|  2100 |    20 | 54058 |  25.7 |    20M |  19 |   - | 270 |5627 |   0 |   0 |   0 |7014 |   0 | 0.000000e+00 |      --      |    Inf 
  4.0s|  2200 |    12 | 55897 |  25.3 |    20M |  19 |  65 | 270 |5729 | 270 | 270 |   0 |7247 |   0 | 0.000000e+00 |      --      |    Inf 
  4.1s|  2300 |    15 | 57393 |  24.9 |    20M |  19 |  28 | 270 |5897 | 270 | 270 |   0 |7473 |   0 | 0.000000e+00 |      --      |    Inf 
  4.1s|  2400 |    10 | 59467 |  24.7 |    20M |  19 |  28 | 270 |6082 | 270 | 270 |   0 |7673 |   0 | 0.000000e+00 |      --      |    Inf 
  4.3s|  2500 |    13 | 62339 |  24.9 |    20M |  19 |   - | 270 |6340 | 270 | 270 |   0 |7981 |   0 | 0.000000e+00 |      --      |    Inf 
  4.4s|  2600 |    20 | 65425 |  25.1 |    20M |  19 |   - | 270 |6722 | 270 | 270 |   0 |8442 |   0 | 0.000000e+00 |      --      |    Inf 
  4.6s|  2700 |     9 | 68128 |  25.2 |    20M |  20 |   - | 270 |7041 | 270 | 270 |   0 |8850 |   0 | 0.000000e+00 |      --      |    Inf 
  5.0s|  2800 |     7 | 69601 |  24.8 |    20M |  20 |  28 | 270 |7146 | 270 | 270 |   0 |8998 |   0 | 0.000000e+00 |      --      |    Inf 
 time | node  | left  |LP iter|LP it/n|mem/heur|mdpt |frac |vars |cons |cols |rows |cuts |confs|strbr|  dualbound   | primalbound  |  gap   
  5.4s|  2900 |    26 | 72291 |  24.9 |    20M |  20 |   - | 270 |7277 | 270 | 270 |   0 |9257 |   0 | 0.000000e+00 |      --      |    Inf 
  5.6s|  3000 |    48 | 74960 |  24.9 |    21M |  20 |  28 | 270 |7559 | 270 | 270 |   0 |9709 |   0 | 0.000000e+00 |      --      |    Inf 
  5.7s|  3100 |    35 | 77534 |  25.0 |    21M |  20 |   - | 270 |7836 | 270 | 270 |   0 |  10k|   0 | 0.000000e+00 |      --      |    Inf 
  5.9s|  3200 |    20 | 79316 |  24.7 |    22M |  20 |  28 | 270 |8055 | 270 | 270 |   0 |  10k|   0 | 0.000000e+00 |      --      |    Inf 
  6.0s|  3300 |    26 | 82164 |  24.8 |    22M |  20 |  52 | 270 |8289 | 270 | 270 |   0 |  10k|   0 | 0.000000e+00 |      --      |    Inf 
  6.2s|  3400 |    34 | 85312 |  25.0 |    22M |  20 |   - | 270 |8521 |   0 |   0 |   0 |  11k|   0 | 0.000000e+00 |      --      |    Inf 
  6.3s|  3500 |    31 | 88258 |  25.2 |    22M |  20 |  28 | 270 |8785 | 270 | 270 |   0 |  11k|   0 | 0.000000e+00 |      --      |    Inf 
  6.5s|  3600 |    19 | 90775 |  25.2 |    22M |  20 |  42 | 270 |8949 | 270 | 270 |   0 |  11k|   0 | 0.000000e+00 |      --      |    Inf 
  6.6s|  3700 |    12 | 93546 |  25.2 |    22M |  20 |  28 | 270 |9144 | 270 | 270 |   0 |  12k|   0 | 0.000000e+00 |      --      |    Inf 
  6.7s|  3800 |     9 | 95468 |  25.1 |    22M |  20 |   - | 270 |9374 |   0 |   0 |   0 |  12k|   0 | 0.000000e+00 |      --      |    Inf 
  6.9s|  3900 |    24 | 98347 |  25.2 |    23M |  20 |  28 | 270 |9587 | 270 | 270 |   0 |  12k|   0 | 0.000000e+00 |      --      |    Inf 
  7.0s|  4000 |    16 |101766 |  25.4 |    23M |  20 |   - | 270 |9772 | 270 | 270 |   0 |  13k|   0 | 0.000000e+00 |      --      |    Inf 
  7.2s|  4100 |    17 |105648 |  25.7 |    23M |  20 |   - | 270 |9942 | 270 | 270 |   0 |  13k|   0 | 0.000000e+00 |      --      |    Inf 
  7.4s|  4200 |    19 |108922 |  25.9 |    23M |  20 |  28 | 270 |  10k| 270 | 270 |   0 |  13k|   0 | 0.000000e+00 |      --      |    Inf 
  7.5s|  4300 |    14 |111449 |  25.9 |    23M |  20 |  58 | 270 |  10k| 270 | 270 |   0 |  14k|   0 | 0.000000e+00 |      --      |    Inf 
 time | node  | left  |LP iter|LP it/n|mem/heur|mdpt |frac |vars |cons |cols |rows |cuts |confs|strbr|  dualbound   | primalbound  |  gap   
  7.7s|  4400 |     7 |114099 |  25.9 |    23M |  20 |   - | 270 |  10k|   0 |   0 |   0 |  14k|   0 | 0.000000e+00 |      --      |    Inf 
  7.9s|  4500 |    18 |117490 |  26.1 |    23M |  20 |   - | 270 |  10k| 270 | 270 |   0 |  14k|   0 | 0.000000e+00 |      --      |    Inf 
  8.1s|  4600 |    11 |120564 |  26.2 |    23M |  20 |   - | 270 |  10k| 270 | 270 |   0 |  14k|   0 | 0.000000e+00 |      --      |    Inf 
  8.2s|  4700 |     7 |123867 |  26.3 |    23M |  20 |   - | 270 |  10k| 270 | 270 |   0 |  15k|   0 | 0.000000e+00 |      --      |    Inf 
  8.4s|  4800 |     4 |126653 |  26.4 |    23M |  20 |  28 | 270 |  10k| 270 | 270 |   0 |  15k|   0 | 0.000000e+00 |      --      |    Inf 

SCIP Status        : problem is solved [infeasible]
Solving Time (sec) : 8.45
Solving Nodes      : 4834
Primal Bound       : +1.00000000000000e+20 (0 solutions)
Dual Bound         : +1.00000000000000e+20
Gap                : 0.00 %

Number of variables fixed to 0 by isomorphism pruning:	   151
Number of variables fixed to 1 by isomorphism pruning:	     6
@04 1686559532
